10 45
1 2 29
1 3 14
1 4 21
1 5 2
1 6 8
1 7 19
1 8 20
1 9 10
1 10 2
2 3 24
2 4 22
2 5 2
2 6 5
2 7 1
2 8 10
2 9 22
2 10 18
3 4 12
3 5 7
3 6 15
3 7 7
3 8 16
3 9 7
3 10 7
4 5 9
4 6 11
4 7 9
4 8 4
4 9 21
4 10 5
5 6 7
5 7 28
5 8 17
5 9 17
5 10 2
6 7 21
6 8 3
6 9 25
6 10 23
7 8 8
7 9 28
7 10 5
8 9 5
8 10 0
9 10 17
